\* Problem: Unknown *\

Maximize
 obj: + xp_0_0 + xp_0_1 + xp_0_2 + xp_0_3 + xp_0_4 + xp_0_5 + xp_0_6
 + xp_0_7 + xp_0_8 + xp_0_9 + xp_0_10 + xp_1_0 + xp_1_1 + xp_1_2
 + xp_2_0 + xp_2_1 + xp_2_2 + xp_2_3 + xp_2_4 + xp_2_5 + xp_3_0 + xp_3_1
 + xp_3_2 + xp_3_3 + xp_3_4 + xp_4_0 + xp_4_1 + xp_5_0 + xp_5_1 + xp_5_2
 + xp_6_0 + xp_6_1 + xp_6_2 + xp_6_3 + xp_7_0 + xp_7_1 + xp_8_0 + xp_8_1
 + xp_9_0 + xp_10_0 + xp_10_1 + xp_11_0 + xp_11_1 + xp_11_2 + xp_11_3
 + xp_12_0 + xp_13_0 + xp_13_1 + xp_14_0 + xp_14_1 + xp_15_0 + xp_16_0
 + xp_16_1 + xp_17_0 + xp_17_1 + xp_17_2 + xp_17_3 + xp_17_4 + xp_17_5
 + xp_17_6 + xp_17_7 + xp_18_0 + xp_18_1 + xp_18_2 + xp_18_3 + xp_18_4
 + xp_18_5 + xp_19_0 + xp_19_1 + xp_19_2 + xp_19_3 + xp_19_4 + xp_19_5
 + xp_20_0 + xp_20_1 + xp_20_2 + xp_20_3 + xp_21_0 + xp_21_1 + xp_21_2
 + xp_21_3 + xp_21_4 + xp_21_5 + xp_21_6 + xp_22_0 + xp_22_1 + xp_22_2
 + xp_22_3 + xp_22_4 + xp_22_5 + xp_23_0 + xp_23_1 + xp_23_2 + xp_23_3
 + xp_23_4 + xp_23_5

Subject To
 r_1: 0 xp_0_0 <= 28.1610576923077
 r_2: + xp_22_2 + xp_18_2 + xp_17_7 + xp_5_2 + xp_2_5 + xp_2_3
 <= 27.9004491017964
 r_3: + xp_23_3 + xp_21_5 + xp_21_1 + xp_18_4 + xp_18_3 + xp_6_2
 <= 29.7154017857143
 r_4: + xp_18_5 + xp_17_1 + xp_15_0 + xp_3_4 + xp_0_9
 <= 29.7154017857143
 r_5: + xp_18_0 + xp_0_10 <= 26.9847972972973
 r_6: + xp_19_5 + xp_18_1 <= 29.2225609756098
 r_7: + xp_20_3 <= 28.1610576923077
 r_8: + xp_22_4 + xp_11_2 + xp_5_1 + xp_3_3 + xp_3_2 + xp_2_2
 <= 27.9004491017964
 r_9: + xp_23_4 + xp_11_1 + xp_6_3 + xp_3_1 <= 29.7154017857143
 r_10: + xp_17_3 + xp_3_0 <= 29.7154017857143
 r_11: + xp_18_4 + xp_18_1 + xp_11_3 + xp_0_6 <= 26.9847972972973
 r_12: + xp_11_0 + xp_3_4 <= 29.2225609756098
 r_13: 0 xp_0_0 <= 29.2225609756098
 r_14: + xp_21_2 + xp_14_0 + xp_0_8 + xp_0_1 <= 27.9004491017964
 r_15: + xp_21_0 + xp_19_3 <= 29.7154017857143
 r_16: + xp_22_1 + xp_21_5 + xp_21_4 + xp_19_4 + xp_0_5 + xp_0_3
 + xp_0_2 <= 28.1610576923077
 r_17: + xp_0_0 <= 26.9847972972973
 r_18: + xp_21_1 + xp_19_5 + xp_4_0 + xp_0_10 + xp_0_9
 <= 28.1610576923077
 r_19: + xp_19_0 + xp_0_6 <= 28.1610576923077
 r_20: + xp_21_6 + xp_21_3 + xp_19_2 + xp_19_1 + xp_14_1 + xp_4_1
 + xp_0_7 + xp_0_4 <= 28.1610576923077
 r_21: + xp_20_1 <= 27.9004491017964
 r_22: + xp_21_6 + xp_21_2 + xp_7_1 <= 29.7154017857143
 r_23: + xp_22_4 + xp_22_3 + xp_22_2 + xp_3_2 <= 27.9004491017964
 r_24: + xp_23_2 + xp_17_7 + xp_17_6 + xp_6_1 + xp_3_3 + xp_0_8 + xp_0_4
 <= 29.0077821011673
 r_25: 0 xp_0_0 <= 27.9004491017964
 r_26: + xp_18_2 + xp_0_7 + xp_0_1 <= 26.9847972972973
 r_27: + xp_11_2 + xp_4_1 <= 27.9004491017964
 r_28: + xp_19_2 + xp_10_1 <= 27.9004491017964
 r_29: + xp_20_2 <= 29.7154017857143
 r_30: + xp_2_0 <= 29.7154017857143
 r_31: + xp_23_4 + xp_23_3 + xp_18_3 + xp_6_3 + xp_6_2 + xp_3_1 + xp_2_5
 + xp_2_4 <= 29.0077821011673
 r_32: + xp_2_1 <= 29.7154017857143
 r_33: + xp_11_1 + xp_2_3 <= 29.7154017857143
 r_34: + xp_19_3 + xp_18_4 + xp_2_2 <= 29.7154017857143
 r_35: 0 xp_0_0 <= 28.1610576923077
 r_36: + xp_9_0 <= 27.9004491017964
 r_37: + xp_21_4 + xp_13_1 + xp_8_1 + xp_0_3 <= 29.0077821011673
 r_38: + xp_23_5 + xp_1_1 <= 30
 r_39: + xp_21_5 + xp_19_4 + xp_17_2 + xp_3_2 + xp_0_5
 <= 29.7154017857143
 r_40: + xp_0_2 <= 26.9847972972973
 r_41: + xp_12_0 + xp_2_4 <= 29.0077821011673
 r_42: + xp_21_4 <= 29.0077821011673
 r_43: + xp_16_0 <= 29.0077821011673
 r_44: + xp_23_4 + xp_23_3 + xp_23_2 + xp_23_1 + xp_16_1 + xp_1_2
 <= 29.0077821011673
 r_45: + xp_17_7 + xp_17_6 + xp_17_4 + xp_3_3 + xp_3_1 + xp_2_5
 <= 29.7154017857143
 r_46: + xp_18_3 + xp_0_8 + xp_0_4 + xp_0_3 <= 26.9847972972973
 r_47: + xp_22_5 + xp_16_1 + xp_13_1 <= 30
 r_48: + xp_13_0 <= 29.0077821011673
 r_49: + xp_17_5 <= 29.7154017857143
 r_50: 0 xp_0_0 <= 26.9847972972973
 r_51: + xp_8_1 + xp_1_1 <= 29.7154017857143
 r_52: + xp_8_0 + xp_1_2 <= 29.7154017857143
 r_53: + xp_1_0 <= 29.7154017857143
 r_54: + xp_18_5 + xp_0_9 + xp_0_5 <= 26.9847972972973
 r_55: + xp_21_5 + xp_2_5 <= 29.7154017857143
 r_56: + xp_19_4 <= 29.7154017857143
 r_57: + xp_22_1 <= 26.9847972972973
 r_58: + xp_23_2 + xp_22_3 + xp_17_6 + xp_6_1 + xp_5_0
 <= 26.9847972972973
 r_59: + xp_23_5 + xp_22_0 + xp_17_2 <= 26.9847972972973
 r_60: + xp_23_1 + xp_17_4 + xp_6_0 <= 26.9847972972973
 r_61: + xp_23_0 + xp_22_5 + xp_17_5 <= 26.9847972972973
 r_62: + xp_17_0 <= 26.9847972972973
 r_63: + xp_23_3 + xp_22_2 + xp_17_7 + xp_17_1 + xp_11_3 + xp_6_2
 + xp_5_2 <= 26.9847972972973
 r_64: + xp_23_4 + xp_22_4 + xp_17_3 + xp_6_3 + xp_5_1
 <= 26.9847972972973
 r_65: + xp_21_6 + xp_20_1 + xp_19_2 + xp_14_1 + xp_10_1 + xp_7_1
 + xp_4_1 + xp_2_1 + xp_0_7 + xp_0_4 <= 27.9004491017964
 r_66: + xp_21_3 + xp_20_2 + xp_7_0 <= 29.7154017857143
 r_67: + xp_20_3 + xp_19_1 + xp_10_0 <= 29.2225609756098
 r_68: + xp_20_0 <= 28.1610576923077

Bounds
 0 <= xp_0_0 <= 29.0096947238505
 0 <= xp_0_1 <= 9.90323470814242
 0 <= xp_0_2 <= 8.74217250361619
 0 <= xp_0_3 <= 1.89527757477249
 0 <= xp_0_4 <= 3.05633977929872
 0 <= xp_0_5 <= 2.4758086770356
 0 <= xp_0_6 <= 3.05633977929872
 0 <= xp_0_7 <= 2.4758086770356
 0 <= xp_0_8 <= 3.79055514954498
 0 <= xp_0_9 <= 0.580531102263113
 0 <= xp_0_10 <= 0.580531102263113
 0 <= xp_1_0 <= 20.9220260062408
 0 <= xp_1_1 <= 15.2361932819233
 0 <= xp_1_2 <= 0.552075404755479
 0 <= xp_2_0 <= 24.2971097775096
 0 <= xp_2_1 <= 0.517926293413228
 0 <= xp_2_2 <= 2.41320386818572
 0 <= xp_2_3 <= 6.89811291002435
 0 <= xp_2_4 <= 1.55377888023968
 0 <= xp_2_5 <= 0.517926293413228
 0 <= xp_3_0 <= 24.1320538440778
 0 <= xp_3_1 <= 5.52645883305486
 0 <= xp_3_2 <= 0.347180736701975
 0 <= xp_3_3 <= 3.28400052158039
 0 <= xp_3_4 <= 0.347180736701975
 0 <= xp_4_0 <= 25.4980031355472
 0 <= xp_4_1 <= 1.82128593825337
 0 <= xp_5_0 <= 12.7490015677736
 0 <= xp_5_1 <= 7.28514375301349
 0 <= xp_5_2 <= 7.28514375301349
 0 <= xp_6_0 <= 16.3915734442804
 0 <= xp_6_1 <= 1.63915734442804
 0 <= xp_6_2 <= 4.91747203328411
 0 <= xp_6_3 <= 1.63915734442804
 0 <= xp_7_0 <= 20.4211685826659
 0 <= xp_7_1 <= 3.14171824348707
 0 <= xp_8_0 <= 19.7609524300491
 0 <= xp_8_1 <= 1.41149660214636
 0 <= xp_9_0 <= 19.6357390217942
 0 <= xp_10_0 <= 18.3266897536746
 0 <= xp_10_1 <= 1.30904926811961
 0 <= xp_11_0 <= 26.5338860468149
 0 <= xp_11_1 <= 15.1622205981799
 0 <= xp_11_2 <= 9.47638787386246
 0 <= xp_11_3 <= 5.68583272431747
 0 <= xp_12_0 <= 18.4405201248154
 0 <= xp_13_0 <= 15.5378456607241
 0 <= xp_13_1 <= 2.39043779395755
 0 <= xp_14_0 <= 10.2447334026752
 0 <= xp_14_1 <= 6.82982226845015
 0 <= xp_15_0 <= 16.9038101144141
 0 <= xp_16_0 <= 15.1394393617312
 0 <= xp_16_1 <= 1.08138852583794
 0 <= xp_17_0 <= 28.4462287008706
 0 <= xp_17_1 <= 2.53841348588549
 0 <= xp_17_2 <= 8.86738212131596
 0 <= xp_17_3 <= 2.53841348588549
 0 <= xp_17_4 <= 1.26920674294274
 0 <= xp_17_5 <= 1.26920674294274
 0 <= xp_17_6 <= 1.26920674294274
 0 <= xp_17_7 <= 1.26920674294274
 0 <= xp_18_0 <= 22.3278254039974
 0 <= xp_18_1 <= 12.1115514893849
 0 <= xp_18_2 <= 4.16049816991997
 0 <= xp_18_3 <= 3.02788787234623
 0 <= xp_18_4 <= 1.89527757477249
 0 <= xp_18_5 <= 1.89527757477249
 0 <= xp_19_0 <= 26.0387144559644
 0 <= xp_19_1 <= 3.29538355869447
 0 <= xp_19_2 <= 2.19692237246298
 0 <= xp_19_3 <= 11.1781386554749
 0 <= xp_19_4 <= 1.09846118623149
 0 <= xp_19_5 <= 1.09846118623149
 0 <= xp_20_0 <= 28.616978048137
 0 <= xp_20_1 <= 5.20773000330536
 0 <= xp_20_2 <= 5.01991557675571
 0 <= xp_20_3 <= 5.20773000330536
 0 <= xp_21_0 <= 17.8486059854382
 0 <= xp_21_1 <= 1.83266518481231
 0 <= xp_21_2 <= 4.64427535199095
 0 <= xp_21_3 <= 2.74899777721846
 0 <= xp_21_4 <= 12.2879980410411
 0 <= xp_21_5 <= 1.89527757477249
 0 <= xp_21_6 <= 0.916332592406154
 0 <= xp_22_0 <= 17.279454129734
 0 <= xp_22_1 <= 1.60500444253064
 0 <= xp_22_2 <= 2.69777979603781
 0 <= xp_22_3 <= 9.98861696288592
 0 <= xp_22_4 <= 3.50028201730313
 0 <= xp_22_5 <= 5.39555959207562
 0 <= xp_23_0 <= 21.8725115005443
 0 <= xp_23_1 <= 9.69834383064406
 0 <= xp_23_2 <= 1.60500444253064
 0 <= xp_23_3 <= 1.60500444253064
 0 <= xp_23_4 <= 3.79055514954498
 0 <= xp_23_5 <= 1.89527757477249

End
